# Solution for model obj
# Objective value = 7.7288455154061785e+02
ch1_enwk_4nc_1_m_perc 0
ch1_enwk_4nc_1_y 0
ch1_enwk_4nc_2_m_perc 0
ch1_enwk_4nc_2_y 0
ch1_enwk_4nc_3_m_perc 0
ch1_enwk_4nc_3_y 0
ch1_enwk_4nc_4_m_perc 0
ch1_enwk_4nc_4_y 0
ch2_enwk_4nc_1_m_perc 0
ch2_enwk_4nc_1_y 0
ch2_enwk_4nc_2_m_perc 0
ch2_enwk_4nc_2_y 0
ch2_enwk_4nc_3_m_perc 0
ch2_enwk_4nc_3_y 0
ch2_enwk_4nc_4_m_perc 9.9999999999999978e-01
ch2_enwk_4nc_4_y 1
ch3_enwk_4nc_1_m_perc 0
ch3_enwk_4nc_1_y 0
ch3_enwk_4nc_2_m_perc 0
ch3_enwk_4nc_2_y 0
ch3_enwk_4nc_3_m_perc 0
ch3_enwk_4nc_3_y 0
ch3_enwk_4nc_4_m_perc 0
ch3_enwk_4nc_4_y 0
ch1_ep_4nc_1_m_flow 0
ch1_ep_4nc_1_y 0
ch1_ep_4nc_1_delp 0
ch1_ep_4nc_2_m_flow 0
ch1_ep_4nc_2_y 0
ch1_ep_4nc_2_delp 0
ch1_ep_4nc_3_m_flow 0
ch1_ep_4nc_3_y 0
ch1_ep_4nc_3_delp 0
ch1_ep_4nc_4_m_flow 0
ch1_ep_4nc_4_y 0
ch1_ep_4nc_4_delp 0
ch2_ep_4nc_1_m_flow 0
ch2_ep_4nc_1_y 0
ch2_ep_4nc_1_delp 0
ch2_ep_4nc_2_m_flow 0
ch2_ep_4nc_2_y 0
ch2_ep_4nc_2_delp 0
ch2_ep_4nc_3_m_flow 4.1222658899999982e+02
ch2_ep_4nc_3_y 1
ch2_ep_4nc_3_delp 1.4815799784245458e+00
ch2_ep_4nc_4_m_flow 0
ch2_ep_4nc_4_y 0
ch2_ep_4nc_4_delp 0
ch3_ep_4nc_1_m_flow 0
ch3_ep_4nc_1_y 0
ch3_ep_4nc_1_delp 0
ch3_ep_4nc_2_m_flow 0
ch3_ep_4nc_2_y 0
ch3_ep_4nc_2_delp 0
ch3_ep_4nc_3_m_flow 0
ch3_ep_4nc_3_y 0
ch3_ep_4nc_3_delp 0
ch3_ep_4nc_4_m_flow 0
ch3_ep_4nc_4_y 0
ch3_ep_4nc_4_delp 0
sp1_temp_4nc_t_inout 6.4516129032258049e-02
sp1_temp_4nc_y 1
ice_nwk_4nc_1_m_perc 0
ice_nwk_4nc_1_y 0
ice_nwk_4nc_2_m_perc 4.6774193548387077e-01
ice_nwk_4nc_2_y 1
ice_nwk_4nc_3_m_perc 0
ice_nwk_4nc_3_y 0
ice_nwk_4nc_4_m_perc 0
ice_nwk_4nc_4_y 0
gv2_nwk_4nc_1_m_perc 2.3387096774193539e-01
gv2_nwk_4nc_1_y 1
gv2_nwk_4nc_2_m_perc 0
gv2_nwk_4nc_2_y 0
gv2_nwk_4nc_3_m_perc 0
gv2_nwk_4nc_3_y 0
gv2_nwk_4nc_4_m_perc 0
gv2_nwk_4nc_4_y 0
hsb_nwk_4nc_1_m_perc 2.3387096774193539e-01
hsb_nwk_4nc_1_y 1
hsb_nwk_4nc_2_m_perc 0
hsb_nwk_4nc_2_y 0
hsb_nwk_4nc_3_m_perc 0
hsb_nwk_4nc_3_y 0
hsb_nwk_4nc_4_m_perc 0
hsb_nwk_4nc_4_y 0
tro_nwk_4nc_1_m_perc 0
tro_nwk_4nc_1_y 0
tro_nwk_4nc_2_m_perc 4.6774193548387083e-01
tro_nwk_4nc_2_y 1
tro_nwk_4nc_3_m_perc 0
tro_nwk_4nc_3_y 0
tro_nwk_4nc_4_m_perc 0
tro_nwk_4nc_4_y 0
pfa_nwk_4nc_1_m_perc 2.3387096774193547e-01
pfa_nwk_4nc_1_y 1
pfa_nwk_4nc_2_m_perc 0
pfa_nwk_4nc_2_y 0
pfa_nwk_4nc_3_m_perc 0
pfa_nwk_4nc_3_y 0
pfa_nwk_4nc_4_m_perc 0
pfa_nwk_4nc_4_y 0
ser_nwk_4nc_1_m_perc 2.3387096774193539e-01
ser_nwk_4nc_1_y 1
ser_nwk_4nc_2_m_perc 0
ser_nwk_4nc_2_y 0
ser_nwk_4nc_3_m_perc 0
ser_nwk_4nc_3_y 0
ser_nwk_4nc_4_m_perc 0
ser_nwk_4nc_4_y 0
para_nwk_con_4nc_delp 1.7520930551577862e+01
para_nwk_con_4nc_y 1
dist_np_4nc_combi_0_0_m_flow 0
dist_np_4nc_combi_0_0_y 0
dist_np_4nc_combi_0_0_delp 0
dist_np_4nc_combi_0_1_m_flow 0
dist_np_4nc_combi_0_1_y 0
dist_np_4nc_combi_0_1_delp 0
dist_np_4nc_combi_0_2_m_flow 0
dist_np_4nc_combi_0_2_y 0
dist_np_4nc_combi_0_2_delp 0
dist_np_4nc_combi_0_3_m_flow 0
dist_np_4nc_combi_0_3_y 0
dist_np_4nc_combi_0_3_delp 0
dist_np_4nc_combi_1_0_m_flow 0
dist_np_4nc_combi_1_0_y 0
dist_np_4nc_combi_1_0_delp 0
dist_np_4nc_combi_1_1_m_flow 0
dist_np_4nc_combi_1_1_y 0
dist_np_4nc_combi_1_1_delp 0
dist_np_4nc_combi_1_2_m_flow 0
dist_np_4nc_combi_1_2_y 0
dist_np_4nc_combi_1_2_delp 0
dist_np_4nc_combi_1_3_m_flow 0
dist_np_4nc_combi_1_3_y 0
dist_np_4nc_combi_1_3_delp 0
dist_np_4nc_combi_2_0_m_flow 0
dist_np_4nc_combi_2_0_y 0
dist_np_4nc_combi_2_0_delp 0
dist_np_4nc_combi_2_1_m_flow 0
dist_np_4nc_combi_2_1_y 0
dist_np_4nc_combi_2_1_delp 0
dist_np_4nc_combi_2_2_m_flow 0
dist_np_4nc_combi_2_2_y 0
dist_np_4nc_combi_2_2_delp 0
dist_np_4nc_combi_2_3_m_flow 0
dist_np_4nc_combi_2_3_y 0
dist_np_4nc_combi_2_3_delp 0
dist_np_4nc_combi_3_0_m_flow 0
dist_np_4nc_combi_3_0_y 0
dist_np_4nc_combi_3_0_delp 0
dist_np_4nc_combi_3_1_m_flow 0
dist_np_4nc_combi_3_1_y 0
dist_np_4nc_combi_3_1_delp 0
dist_np_4nc_combi_3_2_m_flow 0
dist_np_4nc_combi_3_2_y 0
dist_np_4nc_combi_3_2_delp 0
dist_np_4nc_combi_3_3_m_flow 0
dist_np_4nc_combi_3_3_y 0
dist_np_4nc_combi_3_3_delp 0
dist_np_4nc_combi_4_0_m_flow 0
dist_np_4nc_combi_4_0_y 0
dist_np_4nc_combi_4_0_delp 0
dist_np_4nc_combi_4_1_m_flow 0
dist_np_4nc_combi_4_1_y 0
dist_np_4nc_combi_4_1_delp 0
dist_np_4nc_combi_4_2_m_flow 0
dist_np_4nc_combi_4_2_y 0
dist_np_4nc_combi_4_2_delp 0
dist_np_4nc_combi_4_3_m_flow 0
dist_np_4nc_combi_4_3_y 0
dist_np_4nc_combi_4_3_delp 0
dist_np_4nc_combi_5_0_m_flow 0
dist_np_4nc_combi_5_0_y 0
dist_np_4nc_combi_5_0_delp 0
dist_np_4nc_combi_5_1_m_flow 0
dist_np_4nc_combi_5_1_y 0
dist_np_4nc_combi_5_1_delp 0
dist_np_4nc_combi_5_2_m_flow 3.8563132519354838e+02
dist_np_4nc_combi_5_2_y 1
dist_np_4nc_combi_5_2_delp 1.7520930551577862e+01
dist_np_4nc_combi_5_3_m_flow 0
dist_np_4nc_combi_5_3_y 0
dist_np_4nc_combi_5_3_delp 0
dist_np_4nc_combi_6_0_m_flow 0
dist_np_4nc_combi_6_0_y 0
dist_np_4nc_combi_6_0_delp 0
dist_np_4nc_combi_6_1_m_flow 0
dist_np_4nc_combi_6_1_y 0
dist_np_4nc_combi_6_1_delp 0
dist_np_4nc_combi_6_2_m_flow 0
dist_np_4nc_combi_6_2_y 0
dist_np_4nc_combi_6_2_delp 0
dist_np_4nc_combi_6_3_m_flow 0
dist_np_4nc_combi_6_3_y 0
dist_np_4nc_combi_6_3_delp 0
ch1_4nc_1_evap_u0 0
ch1_4nc_1_evap_u0_y 0
ch1_4nc_1_evap_v0 0
ch1_4nc_1_evap_v0_y 0
ch1_4nc_1_evap_u1 0
ch1_4nc_1_evap_u1_y 0
ch1_4nc_1_evap_v1 0
ch1_4nc_1_evap_v1_y 0
ch1_4nc_1_evap_u2 0
ch1_4nc_1_evap_u2_y 0
ch1_4nc_1_evap_v2 0
ch1_4nc_1_evap_v2_y 0
ch1_4nc_1_evap_u3 0
ch1_4nc_1_evap_u3_y 0
ch1_4nc_1_evap_v3 0
ch1_4nc_1_evap_v3_y 0
ch1_4nc_1_evap_u4 0
ch1_4nc_1_evap_u4_y 0
ch1_4nc_1_evap_v4 0
ch1_4nc_1_evap_v4_y 0
ch1_4nc_1_evap_u5 0
ch1_4nc_1_evap_u5_y 0
ch1_4nc_1_evap_v5 0
ch1_4nc_1_evap_v5_y 0
ch1_4nc_1_evap_u6 0
ch1_4nc_1_evap_u6_y 0
ch1_4nc_1_evap_v6 0
ch1_4nc_1_evap_v6_y 0
ch1_4nc_1_evap_u7 0
ch1_4nc_1_evap_u7_y 0
ch1_4nc_1_evap_v7 0
ch1_4nc_1_evap_v7_y 0
ch1_4nc_1_evap_u8 0
ch1_4nc_1_evap_u8_y 0
ch1_4nc_1_evap_v8 0
ch1_4nc_1_evap_v8_y 0
ch1_4nc_1_evap_u9 0
ch1_4nc_1_evap_u9_y 0
ch1_4nc_1_evap_v9 0
ch1_4nc_1_evap_v9_y 0
ch1_4nc_1_evap_u10 0
ch1_4nc_1_evap_u10_y 0
ch1_4nc_1_evap_v10 0
ch1_4nc_1_evap_v10_y 0
ch1_4nc_1_evap_u11 0
ch1_4nc_1_evap_u11_y 0
ch1_4nc_1_evap_v11 0
ch1_4nc_1_evap_v11_y 0
ch1_4nc_2_evap_u0 0
ch1_4nc_2_evap_u0_y 0
ch1_4nc_2_evap_v0 0
ch1_4nc_2_evap_v0_y 0
ch1_4nc_2_evap_u1 0
ch1_4nc_2_evap_u1_y 0
ch1_4nc_2_evap_v1 0
ch1_4nc_2_evap_v1_y 0
ch1_4nc_2_evap_u2 0
ch1_4nc_2_evap_u2_y 0
ch1_4nc_2_evap_v2 0
ch1_4nc_2_evap_v2_y 0
ch1_4nc_2_evap_u3 0
ch1_4nc_2_evap_u3_y 0
ch1_4nc_2_evap_v3 0
ch1_4nc_2_evap_v3_y 0
ch1_4nc_2_evap_u4 0
ch1_4nc_2_evap_u4_y 0
ch1_4nc_2_evap_v4 0
ch1_4nc_2_evap_v4_y 0
ch1_4nc_2_evap_u5 0
ch1_4nc_2_evap_u5_y 0
ch1_4nc_2_evap_v5 0
ch1_4nc_2_evap_v5_y 0
ch1_4nc_2_evap_u6 0
ch1_4nc_2_evap_u6_y 0
ch1_4nc_2_evap_v6 0
ch1_4nc_2_evap_v6_y 0
ch1_4nc_2_evap_u7 0
ch1_4nc_2_evap_u7_y 0
ch1_4nc_2_evap_v7 0
ch1_4nc_2_evap_v7_y 0
ch1_4nc_2_evap_u8 0
ch1_4nc_2_evap_u8_y 0
ch1_4nc_2_evap_v8 0
ch1_4nc_2_evap_v8_y 0
ch1_4nc_2_evap_u9 0
ch1_4nc_2_evap_u9_y 0
ch1_4nc_2_evap_v9 0
ch1_4nc_2_evap_v9_y 0
ch1_4nc_2_evap_u10 0
ch1_4nc_2_evap_u10_y 0
ch1_4nc_2_evap_v10 0
ch1_4nc_2_evap_v10_y 0
ch1_4nc_2_evap_u11 0
ch1_4nc_2_evap_u11_y 0
ch1_4nc_2_evap_v11 0
ch1_4nc_2_evap_v11_y 0
ch1_4nc_3_evap_u0 0
ch1_4nc_3_evap_u0_y 0
ch1_4nc_3_evap_v0 0
ch1_4nc_3_evap_v0_y 0
ch1_4nc_3_evap_u1 0
ch1_4nc_3_evap_u1_y 0
ch1_4nc_3_evap_v1 0
ch1_4nc_3_evap_v1_y 0
ch1_4nc_3_evap_u2 0
ch1_4nc_3_evap_u2_y 0
ch1_4nc_3_evap_v2 0
ch1_4nc_3_evap_v2_y 0
ch1_4nc_3_evap_u3 0
ch1_4nc_3_evap_u3_y 0
ch1_4nc_3_evap_v3 0
ch1_4nc_3_evap_v3_y 0
ch1_4nc_3_evap_u4 0
ch1_4nc_3_evap_u4_y 0
ch1_4nc_3_evap_v4 0
ch1_4nc_3_evap_v4_y 0
ch1_4nc_3_evap_u5 0
ch1_4nc_3_evap_u5_y 0
ch1_4nc_3_evap_v5 0
ch1_4nc_3_evap_v5_y 0
ch1_4nc_3_evap_u6 0
ch1_4nc_3_evap_u6_y 0
ch1_4nc_3_evap_v6 0
ch1_4nc_3_evap_v6_y 0
ch1_4nc_3_evap_u7 0
ch1_4nc_3_evap_u7_y 0
ch1_4nc_3_evap_v7 0
ch1_4nc_3_evap_v7_y 0
ch1_4nc_3_evap_u8 0
ch1_4nc_3_evap_u8_y 0
ch1_4nc_3_evap_v8 0
ch1_4nc_3_evap_v8_y 0
ch1_4nc_3_evap_u9 0
ch1_4nc_3_evap_u9_y 0
ch1_4nc_3_evap_v9 0
ch1_4nc_3_evap_v9_y 0
ch1_4nc_3_evap_u10 0
ch1_4nc_3_evap_u10_y 0
ch1_4nc_3_evap_v10 0
ch1_4nc_3_evap_v10_y 0
ch1_4nc_3_evap_u11 0
ch1_4nc_3_evap_u11_y 0
ch1_4nc_3_evap_v11 0
ch1_4nc_3_evap_v11_y 0
ch1_4nc_4_evap_u0 0
ch1_4nc_4_evap_u0_y 0
ch1_4nc_4_evap_v0 0
ch1_4nc_4_evap_v0_y 0
ch1_4nc_4_evap_u1 0
ch1_4nc_4_evap_u1_y 0
ch1_4nc_4_evap_v1 0
ch1_4nc_4_evap_v1_y 0
ch1_4nc_4_evap_u2 0
ch1_4nc_4_evap_u2_y 0
ch1_4nc_4_evap_v2 0
ch1_4nc_4_evap_v2_y 0
ch1_4nc_4_evap_u3 0
ch1_4nc_4_evap_u3_y 0
ch1_4nc_4_evap_v3 0
ch1_4nc_4_evap_v3_y 0
ch1_4nc_4_evap_u4 0
ch1_4nc_4_evap_u4_y 0
ch1_4nc_4_evap_v4 0
ch1_4nc_4_evap_v4_y 0
ch1_4nc_4_evap_u5 0
ch1_4nc_4_evap_u5_y 0
ch1_4nc_4_evap_v5 0
ch1_4nc_4_evap_v5_y 0
ch1_4nc_4_evap_u6 0
ch1_4nc_4_evap_u6_y 0
ch1_4nc_4_evap_v6 0
ch1_4nc_4_evap_v6_y 0
ch1_4nc_4_evap_u7 0
ch1_4nc_4_evap_u7_y 0
ch1_4nc_4_evap_v7 0
ch1_4nc_4_evap_v7_y 0
ch1_4nc_4_evap_u8 0
ch1_4nc_4_evap_u8_y 0
ch1_4nc_4_evap_v8 0
ch1_4nc_4_evap_v8_y 0
ch1_4nc_4_evap_u9 0
ch1_4nc_4_evap_u9_y 0
ch1_4nc_4_evap_v9 0
ch1_4nc_4_evap_v9_y 0
ch1_4nc_4_evap_u10 0
ch1_4nc_4_evap_u10_y 0
ch1_4nc_4_evap_v10 0
ch1_4nc_4_evap_v10_y 0
ch1_4nc_4_evap_u11 0
ch1_4nc_4_evap_u11_y 0
ch1_4nc_4_evap_v11 0
ch1_4nc_4_evap_v11_y 0
ch2_4nc_1_evap_u0 0
ch2_4nc_1_evap_u0_y 0
ch2_4nc_1_evap_v0 0
ch2_4nc_1_evap_v0_y 0
ch2_4nc_1_evap_u1 0
ch2_4nc_1_evap_u1_y 0
ch2_4nc_1_evap_v1 0
ch2_4nc_1_evap_v1_y 0
ch2_4nc_1_evap_u2 0
ch2_4nc_1_evap_u2_y 0
ch2_4nc_1_evap_v2 0
ch2_4nc_1_evap_v2_y 0
ch2_4nc_1_evap_u3 0
ch2_4nc_1_evap_u3_y 0
ch2_4nc_1_evap_v3 0
ch2_4nc_1_evap_v3_y 0
ch2_4nc_1_evap_u4 0
ch2_4nc_1_evap_u4_y 0
ch2_4nc_1_evap_v4 0
ch2_4nc_1_evap_v4_y 0
ch2_4nc_1_evap_u5 0
ch2_4nc_1_evap_u5_y 0
ch2_4nc_1_evap_v5 0
ch2_4nc_1_evap_v5_y 0
ch2_4nc_1_evap_u6 0
ch2_4nc_1_evap_u6_y 0
ch2_4nc_1_evap_v6 0
ch2_4nc_1_evap_v6_y 0
ch2_4nc_1_evap_u7 0
ch2_4nc_1_evap_u7_y 0
ch2_4nc_1_evap_v7 0
ch2_4nc_1_evap_v7_y 0
ch2_4nc_1_evap_u8 0
ch2_4nc_1_evap_u8_y 0
ch2_4nc_1_evap_v8 0
ch2_4nc_1_evap_v8_y 0
ch2_4nc_1_evap_u9 0
ch2_4nc_1_evap_u9_y 0
ch2_4nc_1_evap_v9 0
ch2_4nc_1_evap_v9_y 0
ch2_4nc_1_evap_u10 0
ch2_4nc_1_evap_u10_y 0
ch2_4nc_1_evap_v10 0
ch2_4nc_1_evap_v10_y 0
ch2_4nc_1_evap_u11 0
ch2_4nc_1_evap_u11_y 0
ch2_4nc_1_evap_v11 0
ch2_4nc_1_evap_v11_y 0
ch2_4nc_2_evap_u0 0
ch2_4nc_2_evap_u0_y 0
ch2_4nc_2_evap_v0 0
ch2_4nc_2_evap_v0_y 0
ch2_4nc_2_evap_u1 0
ch2_4nc_2_evap_u1_y 0
ch2_4nc_2_evap_v1 0
ch2_4nc_2_evap_v1_y 0
ch2_4nc_2_evap_u2 0
ch2_4nc_2_evap_u2_y 0
ch2_4nc_2_evap_v2 0
ch2_4nc_2_evap_v2_y 0
ch2_4nc_2_evap_u3 0
ch2_4nc_2_evap_u3_y 0
ch2_4nc_2_evap_v3 0
ch2_4nc_2_evap_v3_y 0
ch2_4nc_2_evap_u4 0
ch2_4nc_2_evap_u4_y 0
ch2_4nc_2_evap_v4 0
ch2_4nc_2_evap_v4_y 0
ch2_4nc_2_evap_u5 0
ch2_4nc_2_evap_u5_y 0
ch2_4nc_2_evap_v5 0
ch2_4nc_2_evap_v5_y 0
ch2_4nc_2_evap_u6 1.1228017995148796e+00
ch2_4nc_2_evap_u6_y 1
ch2_4nc_2_evap_v6 0
ch2_4nc_2_evap_v6_y 0
ch2_4nc_2_evap_u7 0
ch2_4nc_2_evap_u7_y 0
ch2_4nc_2_evap_v7 0
ch2_4nc_2_evap_v7_y 0
ch2_4nc_2_evap_u8 0
ch2_4nc_2_evap_u8_y 0
ch2_4nc_2_evap_v8 0
ch2_4nc_2_evap_v8_y 0
ch2_4nc_2_evap_u9 0
ch2_4nc_2_evap_u9_y 0
ch2_4nc_2_evap_v9 0
ch2_4nc_2_evap_v9_y 0
ch2_4nc_2_evap_u10 0
ch2_4nc_2_evap_u10_y 0
ch2_4nc_2_evap_v10 0
ch2_4nc_2_evap_v10_y 0
ch2_4nc_2_evap_u11 0
ch2_4nc_2_evap_u11_y 0
ch2_4nc_2_evap_v11 8.7719820048511998e-01
ch2_4nc_2_evap_v11_y 1
ch2_4nc_3_evap_u0 0
ch2_4nc_3_evap_u0_y 0
ch2_4nc_3_evap_v0 0
ch2_4nc_3_evap_v0_y 0
ch2_4nc_3_evap_u1 0
ch2_4nc_3_evap_u1_y 0
ch2_4nc_3_evap_v1 0
ch2_4nc_3_evap_v1_y 0
ch2_4nc_3_evap_u2 0
ch2_4nc_3_evap_u2_y 0
ch2_4nc_3_evap_v2 0
ch2_4nc_3_evap_v2_y 0
ch2_4nc_3_evap_u3 0
ch2_4nc_3_evap_u3_y 0
ch2_4nc_3_evap_v3 0
ch2_4nc_3_evap_v3_y 0
ch2_4nc_3_evap_u4 0
ch2_4nc_3_evap_u4_y 0
ch2_4nc_3_evap_v4 0
ch2_4nc_3_evap_v4_y 0
ch2_4nc_3_evap_u5 0
ch2_4nc_3_evap_u5_y 0
ch2_4nc_3_evap_v5 0
ch2_4nc_3_evap_v5_y 0
ch2_4nc_3_evap_u6 0
ch2_4nc_3_evap_u6_y 0
ch2_4nc_3_evap_v6 0
ch2_4nc_3_evap_v6_y 0
ch2_4nc_3_evap_u7 0
ch2_4nc_3_evap_u7_y 0
ch2_4nc_3_evap_v7 0
ch2_4nc_3_evap_v7_y 0
ch2_4nc_3_evap_u8 0
ch2_4nc_3_evap_u8_y 0
ch2_4nc_3_evap_v8 0
ch2_4nc_3_evap_v8_y 0
ch2_4nc_3_evap_u9 0
ch2_4nc_3_evap_u9_y 0
ch2_4nc_3_evap_v9 0
ch2_4nc_3_evap_v9_y 0
ch2_4nc_3_evap_u10 0
ch2_4nc_3_evap_u10_y 0
ch2_4nc_3_evap_v10 0
ch2_4nc_3_evap_v10_y 0
ch2_4nc_3_evap_u11 0
ch2_4nc_3_evap_u11_y 0
ch2_4nc_3_evap_v11 0
ch2_4nc_3_evap_v11_y 0
ch2_4nc_4_evap_u0 0
ch2_4nc_4_evap_u0_y 0
ch2_4nc_4_evap_v0 0
ch2_4nc_4_evap_v0_y 0
ch2_4nc_4_evap_u1 0
ch2_4nc_4_evap_u1_y 0
ch2_4nc_4_evap_v1 0
ch2_4nc_4_evap_v1_y 0
ch2_4nc_4_evap_u2 0
ch2_4nc_4_evap_u2_y 0
ch2_4nc_4_evap_v2 0
ch2_4nc_4_evap_v2_y 0
ch2_4nc_4_evap_u3 0
ch2_4nc_4_evap_u3_y 0
ch2_4nc_4_evap_v3 0
ch2_4nc_4_evap_v3_y 0
ch2_4nc_4_evap_u4 0
ch2_4nc_4_evap_u4_y 0
ch2_4nc_4_evap_v4 0
ch2_4nc_4_evap_v4_y 0
ch2_4nc_4_evap_u5 0
ch2_4nc_4_evap_u5_y 0
ch2_4nc_4_evap_v5 0
ch2_4nc_4_evap_v5_y 0
ch2_4nc_4_evap_u6 0
ch2_4nc_4_evap_u6_y 0
ch2_4nc_4_evap_v6 0
ch2_4nc_4_evap_v6_y 0
ch2_4nc_4_evap_u7 0
ch2_4nc_4_evap_u7_y 0
ch2_4nc_4_evap_v7 0
ch2_4nc_4_evap_v7_y 0
ch2_4nc_4_evap_u8 0
ch2_4nc_4_evap_u8_y 0
ch2_4nc_4_evap_v8 0
ch2_4nc_4_evap_v8_y 0
ch2_4nc_4_evap_u9 0
ch2_4nc_4_evap_u9_y 0
ch2_4nc_4_evap_v9 0
ch2_4nc_4_evap_v9_y 0
ch2_4nc_4_evap_u10 0
ch2_4nc_4_evap_u10_y 0
ch2_4nc_4_evap_v10 0
ch2_4nc_4_evap_v10_y 0
ch2_4nc_4_evap_u11 0
ch2_4nc_4_evap_u11_y 0
ch2_4nc_4_evap_v11 0
ch2_4nc_4_evap_v11_y 0
ch3_4nc_1_evap_u0 0
ch3_4nc_1_evap_u0_y 0
ch3_4nc_1_evap_v0 0
ch3_4nc_1_evap_v0_y 0
ch3_4nc_1_evap_u1 0
ch3_4nc_1_evap_u1_y 0
ch3_4nc_1_evap_v1 0
ch3_4nc_1_evap_v1_y 0
ch3_4nc_1_evap_u2 0
ch3_4nc_1_evap_u2_y 0
ch3_4nc_1_evap_v2 0
ch3_4nc_1_evap_v2_y 0
ch3_4nc_1_evap_u3 0
ch3_4nc_1_evap_u3_y 0
ch3_4nc_1_evap_v3 0
ch3_4nc_1_evap_v3_y 0
ch3_4nc_1_evap_u4 0
ch3_4nc_1_evap_u4_y 0
ch3_4nc_1_evap_v4 0
ch3_4nc_1_evap_v4_y 0
ch3_4nc_1_evap_u5 0
ch3_4nc_1_evap_u5_y 0
ch3_4nc_1_evap_v5 0
ch3_4nc_1_evap_v5_y 0
ch3_4nc_1_evap_u6 0
ch3_4nc_1_evap_u6_y 0
ch3_4nc_1_evap_v6 0
ch3_4nc_1_evap_v6_y 0
ch3_4nc_1_evap_u7 0
ch3_4nc_1_evap_u7_y 0
ch3_4nc_1_evap_v7 0
ch3_4nc_1_evap_v7_y 0
ch3_4nc_1_evap_u8 0
ch3_4nc_1_evap_u8_y 0
ch3_4nc_1_evap_v8 0
ch3_4nc_1_evap_v8_y 0
ch3_4nc_1_evap_u9 0
ch3_4nc_1_evap_u9_y 0
ch3_4nc_1_evap_v9 0
ch3_4nc_1_evap_v9_y 0
ch3_4nc_1_evap_u10 0
ch3_4nc_1_evap_u10_y 0
ch3_4nc_1_evap_v10 0
ch3_4nc_1_evap_v10_y 0
ch3_4nc_1_evap_u11 0
ch3_4nc_1_evap_u11_y 0
ch3_4nc_1_evap_v11 0
ch3_4nc_1_evap_v11_y 0
ch3_4nc_2_evap_u0 0
ch3_4nc_2_evap_u0_y 0
ch3_4nc_2_evap_v0 0
ch3_4nc_2_evap_v0_y 0
ch3_4nc_2_evap_u1 0
ch3_4nc_2_evap_u1_y 0
ch3_4nc_2_evap_v1 0
ch3_4nc_2_evap_v1_y 0
ch3_4nc_2_evap_u2 0
ch3_4nc_2_evap_u2_y 0
ch3_4nc_2_evap_v2 0
ch3_4nc_2_evap_v2_y 0
ch3_4nc_2_evap_u3 0
ch3_4nc_2_evap_u3_y 0
ch3_4nc_2_evap_v3 0
ch3_4nc_2_evap_v3_y 0
ch3_4nc_2_evap_u4 0
ch3_4nc_2_evap_u4_y 0
ch3_4nc_2_evap_v4 0
ch3_4nc_2_evap_v4_y 0
ch3_4nc_2_evap_u5 0
ch3_4nc_2_evap_u5_y 0
ch3_4nc_2_evap_v5 0
ch3_4nc_2_evap_v5_y 0
ch3_4nc_2_evap_u6 0
ch3_4nc_2_evap_u6_y 0
ch3_4nc_2_evap_v6 0
ch3_4nc_2_evap_v6_y 0
ch3_4nc_2_evap_u7 0
ch3_4nc_2_evap_u7_y 0
ch3_4nc_2_evap_v7 0
ch3_4nc_2_evap_v7_y 0
ch3_4nc_2_evap_u8 0
ch3_4nc_2_evap_u8_y 0
ch3_4nc_2_evap_v8 0
ch3_4nc_2_evap_v8_y 0
ch3_4nc_2_evap_u9 0
ch3_4nc_2_evap_u9_y 0
ch3_4nc_2_evap_v9 0
ch3_4nc_2_evap_v9_y 0
ch3_4nc_2_evap_u10 0
ch3_4nc_2_evap_u10_y 0
ch3_4nc_2_evap_v10 0
ch3_4nc_2_evap_v10_y 0
ch3_4nc_2_evap_u11 0
ch3_4nc_2_evap_u11_y 0
ch3_4nc_2_evap_v11 0
ch3_4nc_2_evap_v11_y 0
ch3_4nc_3_evap_u0 0
ch3_4nc_3_evap_u0_y 0
ch3_4nc_3_evap_v0 0
ch3_4nc_3_evap_v0_y 0
ch3_4nc_3_evap_u1 0
ch3_4nc_3_evap_u1_y 0
ch3_4nc_3_evap_v1 0
ch3_4nc_3_evap_v1_y 0
ch3_4nc_3_evap_u2 0
ch3_4nc_3_evap_u2_y 0
ch3_4nc_3_evap_v2 0
ch3_4nc_3_evap_v2_y 0
ch3_4nc_3_evap_u3 0
ch3_4nc_3_evap_u3_y 0
ch3_4nc_3_evap_v3 0
ch3_4nc_3_evap_v3_y 0
ch3_4nc_3_evap_u4 0
ch3_4nc_3_evap_u4_y 0
ch3_4nc_3_evap_v4 0
ch3_4nc_3_evap_v4_y 0
ch3_4nc_3_evap_u5 0
ch3_4nc_3_evap_u5_y 0
ch3_4nc_3_evap_v5 0
ch3_4nc_3_evap_v5_y 0
ch3_4nc_3_evap_u6 0
ch3_4nc_3_evap_u6_y 0
ch3_4nc_3_evap_v6 0
ch3_4nc_3_evap_v6_y 0
ch3_4nc_3_evap_u7 0
ch3_4nc_3_evap_u7_y 0
ch3_4nc_3_evap_v7 0
ch3_4nc_3_evap_v7_y 0
ch3_4nc_3_evap_u8 0
ch3_4nc_3_evap_u8_y 0
ch3_4nc_3_evap_v8 0
ch3_4nc_3_evap_v8_y 0
ch3_4nc_3_evap_u9 0
ch3_4nc_3_evap_u9_y 0
ch3_4nc_3_evap_v9 0
ch3_4nc_3_evap_v9_y 0
ch3_4nc_3_evap_u10 0
ch3_4nc_3_evap_u10_y 0
ch3_4nc_3_evap_v10 0
ch3_4nc_3_evap_v10_y 0
ch3_4nc_3_evap_u11 0
ch3_4nc_3_evap_u11_y 0
ch3_4nc_3_evap_v11 0
ch3_4nc_3_evap_v11_y 0
ch3_4nc_4_evap_u0 0
ch3_4nc_4_evap_u0_y 0
ch3_4nc_4_evap_v0 0
ch3_4nc_4_evap_v0_y 0
ch3_4nc_4_evap_u1 0
ch3_4nc_4_evap_u1_y 0
ch3_4nc_4_evap_v1 0
ch3_4nc_4_evap_v1_y 0
ch3_4nc_4_evap_u2 0
ch3_4nc_4_evap_u2_y 0
ch3_4nc_4_evap_v2 0
ch3_4nc_4_evap_v2_y 0
ch3_4nc_4_evap_u3 0
ch3_4nc_4_evap_u3_y 0
ch3_4nc_4_evap_v3 0
ch3_4nc_4_evap_v3_y 0
ch3_4nc_4_evap_u4 0
ch3_4nc_4_evap_u4_y 0
ch3_4nc_4_evap_v4 0
ch3_4nc_4_evap_v4_y 0
ch3_4nc_4_evap_u5 0
ch3_4nc_4_evap_u5_y 0
ch3_4nc_4_evap_v5 0
ch3_4nc_4_evap_v5_y 0
ch3_4nc_4_evap_u6 0
ch3_4nc_4_evap_u6_y 0
ch3_4nc_4_evap_v6 0
ch3_4nc_4_evap_v6_y 0
ch3_4nc_4_evap_u7 0
ch3_4nc_4_evap_u7_y 0
ch3_4nc_4_evap_v7 0
ch3_4nc_4_evap_v7_y 0
ch3_4nc_4_evap_u8 0
ch3_4nc_4_evap_u8_y 0
ch3_4nc_4_evap_v8 0
ch3_4nc_4_evap_v8_y 0
ch3_4nc_4_evap_u9 0
ch3_4nc_4_evap_u9_y 0
ch3_4nc_4_evap_v9 0
ch3_4nc_4_evap_v9_y 0
ch3_4nc_4_evap_u10 0
ch3_4nc_4_evap_u10_y 0
ch3_4nc_4_evap_v10 0
ch3_4nc_4_evap_v10_y 0
ch3_4nc_4_evap_u11 0
ch3_4nc_4_evap_u11_y 0
ch3_4nc_4_evap_v11 0
ch3_4nc_4_evap_v11_y 0
cp_nwk_4nc_u0 1.2903225806451610e-01
cp_nwk_4nc_u0_y 1
cp_nwk_4nc_v0 0
cp_nwk_4nc_v0_y 0
cp_nwk_4nc_u1 0
cp_nwk_4nc_u1_y 0
cp_nwk_4nc_v1 0
cp_nwk_4nc_v1_y 0
cp_nwk_4nc_u2 0
cp_nwk_4nc_u2_y 0
cp_nwk_4nc_v2 0
cp_nwk_4nc_v2_y 0
cp_nwk_4nc_u3 0
cp_nwk_4nc_u3_y 0
cp_nwk_4nc_v3 0
cp_nwk_4nc_v3_y 0
cp_nwk_4nc_u4 0
cp_nwk_4nc_u4_y 0
cp_nwk_4nc_v4 0
cp_nwk_4nc_v4_y 0
cp_nwk_4nc_u5 0
cp_nwk_4nc_u5_y 0
cp_nwk_4nc_v5 0
cp_nwk_4nc_v5_y 0
cp_nwk_4nc_u6 0
cp_nwk_4nc_u6_y 0
cp_nwk_4nc_v6 0
cp_nwk_4nc_v6_y 1
cp_nwk_4nc_u7 0
cp_nwk_4nc_u7_y 0
cp_nwk_4nc_v7 0
cp_nwk_4nc_v7_y 0
cp_nwk_4nc_u8 0
cp_nwk_4nc_u8_y 0
cp_nwk_4nc_v8 0
cp_nwk_4nc_v8_y 0
cp_nwk_4nc_u9 0
cp_nwk_4nc_u9_y 0
cp_nwk_4nc_v9 0
cp_nwk_4nc_v9_y 0
cp_nwk_4nc_u10 0
cp_nwk_4nc_u10_y 0
cp_nwk_4nc_v10 0
cp_nwk_4nc_v10_y 0
cp_nwk_4nc_u11 0
cp_nwk_4nc_u11_y 0
cp_nwk_4nc_v11 0
cp_nwk_4nc_v11_y 0
gv2_ss_4nc_u0 0
gv2_ss_4nc_u0_y 0
gv2_ss_4nc_v0 0
gv2_ss_4nc_v0_y 0
gv2_ss_4nc_u1 0
gv2_ss_4nc_u1_y 0
gv2_ss_4nc_v1 0
gv2_ss_4nc_v1_y 0
gv2_ss_4nc_u2 4.6774193548387077e-01
gv2_ss_4nc_u2_y 1
gv2_ss_4nc_v2 0
gv2_ss_4nc_v2_y 0
gv2_ss_4nc_u3 0
gv2_ss_4nc_u3_y 0
gv2_ss_4nc_v3 0
gv2_ss_4nc_v3_y 0
gv2_ss_4nc_u4 0
gv2_ss_4nc_u4_y 0
gv2_ss_4nc_v4 0
gv2_ss_4nc_v4_y 0
gv2_ss_4nc_u5 0
gv2_ss_4nc_u5_y 0
gv2_ss_4nc_v5 0
gv2_ss_4nc_v5_y 0
gv2_ss_4nc_u6 0
gv2_ss_4nc_u6_y 0
gv2_ss_4nc_v6 0
gv2_ss_4nc_v6_y 1
gv2_ss_4nc_u7 0
gv2_ss_4nc_u7_y 0
gv2_ss_4nc_v7 0
gv2_ss_4nc_v7_y 0
gv2_ss_4nc_u8 0
gv2_ss_4nc_u8_y 0
gv2_ss_4nc_v8 0
gv2_ss_4nc_v8_y 0
gv2_ss_4nc_u9 0
gv2_ss_4nc_u9_y 0
gv2_ss_4nc_v9 0
gv2_ss_4nc_v9_y 0
gv2_ss_4nc_u10 0
gv2_ss_4nc_u10_y 0
gv2_ss_4nc_v10 0
gv2_ss_4nc_v10_y 0
gv2_ss_4nc_u11 0
gv2_ss_4nc_u11_y 0
gv2_ss_4nc_v11 0
gv2_ss_4nc_v11_y 0
hsb_ss_4nc_u0 0
hsb_ss_4nc_u0_y 0
hsb_ss_4nc_v0 0
hsb_ss_4nc_v0_y 0
hsb_ss_4nc_u1 0
hsb_ss_4nc_u1_y 0
hsb_ss_4nc_v1 0
hsb_ss_4nc_v1_y 0
hsb_ss_4nc_u2 4.6774193548387077e-01
hsb_ss_4nc_u2_y 1
hsb_ss_4nc_v2 0
hsb_ss_4nc_v2_y 0
hsb_ss_4nc_u3 0
hsb_ss_4nc_u3_y 0
hsb_ss_4nc_v3 0
hsb_ss_4nc_v3_y 0
hsb_ss_4nc_u4 0
hsb_ss_4nc_u4_y 0
hsb_ss_4nc_v4 0
hsb_ss_4nc_v4_y 0
hsb_ss_4nc_u5 0
hsb_ss_4nc_u5_y 0
hsb_ss_4nc_v5 0
hsb_ss_4nc_v5_y 0
hsb_ss_4nc_u6 0
hsb_ss_4nc_u6_y 0
hsb_ss_4nc_v6 0
hsb_ss_4nc_v6_y 1
hsb_ss_4nc_u7 0
hsb_ss_4nc_u7_y 0
hsb_ss_4nc_v7 0
hsb_ss_4nc_v7_y 0
hsb_ss_4nc_u8 0
hsb_ss_4nc_u8_y 0
hsb_ss_4nc_v8 0
hsb_ss_4nc_v8_y 0
hsb_ss_4nc_u9 0
hsb_ss_4nc_u9_y 0
hsb_ss_4nc_v9 0
hsb_ss_4nc_v9_y 0
hsb_ss_4nc_u10 0
hsb_ss_4nc_u10_y 0
hsb_ss_4nc_v10 0
hsb_ss_4nc_v10_y 0
hsb_ss_4nc_u11 0
hsb_ss_4nc_u11_y 0
hsb_ss_4nc_v11 0
hsb_ss_4nc_v11_y 0
pfa_ss_4nc_u0 0
pfa_ss_4nc_u0_y 0
pfa_ss_4nc_v0 0
pfa_ss_4nc_v0_y 0
pfa_ss_4nc_u1 0
pfa_ss_4nc_u1_y 0
pfa_ss_4nc_v1 0
pfa_ss_4nc_v1_y 0
pfa_ss_4nc_u2 4.6774193548387094e-01
pfa_ss_4nc_u2_y 1
pfa_ss_4nc_v2 0
pfa_ss_4nc_v2_y 0
pfa_ss_4nc_u3 0
pfa_ss_4nc_u3_y 0
pfa_ss_4nc_v3 0
pfa_ss_4nc_v3_y 0
pfa_ss_4nc_u4 0
pfa_ss_4nc_u4_y 0
pfa_ss_4nc_v4 0
pfa_ss_4nc_v4_y 0
pfa_ss_4nc_u5 0
pfa_ss_4nc_u5_y 0
pfa_ss_4nc_v5 0
pfa_ss_4nc_v5_y 0
pfa_ss_4nc_u6 0
pfa_ss_4nc_u6_y 0
pfa_ss_4nc_v6 0
pfa_ss_4nc_v6_y 1
pfa_ss_4nc_u7 0
pfa_ss_4nc_u7_y 0
pfa_ss_4nc_v7 0
pfa_ss_4nc_v7_y 0
pfa_ss_4nc_u8 0
pfa_ss_4nc_u8_y 0
pfa_ss_4nc_v8 0
pfa_ss_4nc_v8_y 0
pfa_ss_4nc_u9 0
pfa_ss_4nc_u9_y 0
pfa_ss_4nc_v9 0
pfa_ss_4nc_v9_y 0
pfa_ss_4nc_u10 0
pfa_ss_4nc_u10_y 0
pfa_ss_4nc_v10 0
pfa_ss_4nc_v10_y 0
pfa_ss_4nc_u11 0
pfa_ss_4nc_u11_y 0
pfa_ss_4nc_v11 0
pfa_ss_4nc_v11_y 0
ser_ss_4nc_u0 0
ser_ss_4nc_u0_y 0
ser_ss_4nc_v0 0
ser_ss_4nc_v0_y 0
ser_ss_4nc_u1 0
ser_ss_4nc_u1_y 0
ser_ss_4nc_v1 0
ser_ss_4nc_v1_y 0
ser_ss_4nc_u2 4.6774193548387077e-01
ser_ss_4nc_u2_y 1
ser_ss_4nc_v2 0
ser_ss_4nc_v2_y 0
ser_ss_4nc_u3 0
ser_ss_4nc_u3_y 0
ser_ss_4nc_v3 0
ser_ss_4nc_v3_y 0
ser_ss_4nc_u4 0
ser_ss_4nc_u4_y 0
ser_ss_4nc_v4 0
ser_ss_4nc_v4_y 0
ser_ss_4nc_u5 0
ser_ss_4nc_u5_y 0
ser_ss_4nc_v5 0
ser_ss_4nc_v5_y 0
ser_ss_4nc_u6 0
ser_ss_4nc_u6_y 0
ser_ss_4nc_v6 0
ser_ss_4nc_v6_y 1
ser_ss_4nc_u7 0
ser_ss_4nc_u7_y 0
ser_ss_4nc_v7 0
ser_ss_4nc_v7_y 0
ser_ss_4nc_u8 0
ser_ss_4nc_u8_y 0
ser_ss_4nc_v8 0
ser_ss_4nc_v8_y 0
ser_ss_4nc_u9 0
ser_ss_4nc_u9_y 0
ser_ss_4nc_v9 0
ser_ss_4nc_v9_y 0
ser_ss_4nc_u10 0
ser_ss_4nc_u10_y 0
ser_ss_4nc_v10 0
ser_ss_4nc_v10_y 0
ser_ss_4nc_u11 0
ser_ss_4nc_u11_y 0
ser_ss_4nc_v11 0
ser_ss_4nc_v11_y 0
ch_e_f_c_4nc_m_perc 1
ch_e_f_c_4nc_y 1
ch_evap_ret_4nc_t_in 1
ch_evap_ret_4nc_y 1
ch1_4nc_1_evap_y 0
ch1_4nc_2_evap_y 0
ch1_4nc_3_evap_y 0
ch1_4nc_4_evap_y 0
ch2_4nc_1_evap_y 0
ch2_4nc_2_evap_y 1
ch2_4nc_3_evap_y 0
ch2_4nc_4_evap_y 0
ch3_4nc_1_evap_y 0
ch3_4nc_2_evap_y 0
ch3_4nc_3_evap_y 0
ch3_4nc_4_evap_y 0
cp_nwk_4nc_y 1
gv2_ss_4nc_y 1
hsb_ss_4nc_y 1
pfa_ss_4nc_y 1
ser_ss_4nc_y 1
